(set-logic HORN)
(set-info :source |
    Benchmark: 
    Output by Princess (http://www.philipp.ruemmer.org/princess.shtml)
|)
(declare-heap Heap Addr HeapObject
 defObj
 ((HeapObject 0) (node 0)) (
  (
   (O_Int (getInt Int))
   (O_UInt (getUInt Int))
   (O_Addr (getAddr Addr))
   (O_AddrRange (getAddrRange AddrRange))
   (O_node (getnode node))
   (defObj)
  )
  (
   (node (|node::val| Int) (|node::next| Addr))
  )
))
(declare-fun _Glue18 (Heap Addr HeapObject) Bool)
(declare-fun _Glue12 (Int Addr Heap Addr HeapObject) Bool)
(declare-fun _Glue2 (Int Int Addr Heap Addr HeapObject) Bool)
(declare-fun _Glue11 (Heap Addr Int Addr HeapObject) Bool)
(declare-fun _Glue9 (Heap Addr Int Addr HeapObject) Bool)
(declare-fun Inv_Heap_exp_exp (Addr Int Addr) Bool)
(declare-fun inv_main587_14 (Heap Addr Addr) Bool)
(declare-fun inv_main588_17 (Heap Addr Addr) Bool)
(declare-fun inv_main_2 (Heap Addr Addr) Bool)
(declare-fun _Glue4 (Int Addr Heap Addr HeapObject) Bool)
(declare-fun _Glue0 (Addr Heap Addr HeapObject) Bool)
(declare-fun _Glue7 (Addr Addr Int Addr Heap HeapObject) Bool)
(declare-fun _Glue16 (Addr Addr Heap HeapObject) Bool)
(assert (forall ((var0 Int) (var1 Int) (var2 Addr) (var3 HeapObject) (var4 node) (var5 Addr) (var6 Heap) (var7 Addr) (var8 Int) (var9 Addr)) (or (not (and (and (Inv_Heap_exp_exp var9 var8 var7) (inv_main587_14 var6 var9 var5)) (and (and (and (and (and (and (= (O_node var4) var3) (= (node var8 var7) var4)) (= nullAddr var2)) (not (= var1 0))) (not (= var9 var2))) (= (read var6 var9) var3)) (valid var6 var9)))) (_Glue2 var1 var0 var5 var6 var9 var3))))
(assert (forall ((var0 Int) (var1 HeapObject) (var2 Int) (var3 Addr) (var4 Addr) (var5 Addr) (var6 Heap)) (or (not (and (inv_main587_14 var6 var5 var4) (and (and (and (and (= nullAddr var3) (not (= var2 0))) (not (= var5 var3))) (= (read var6 var5) var1)) (not (valid var6 var5))))) (_Glue2 var2 var0 var4 var6 var5 var1))))
(assert (forall ((var0 Int) (var1 Addr) (var2 node) (var3 HeapObject) (var4 Addr) (var5 Heap) (var6 Addr)) (or (not (and (_Glue2 1 10 var6 var5 var4 var3) (and (and (and (and (= (getnode var3) var2) (= (|node::val| var2) 20)) (= (|node::next| var2) var1)) (valid var5 var4)) (= var0 10)))) (Inv_Heap_exp_exp var4 var0 var1))))
(assert (forall ((var0 node) (var1 Heap) (var2 HeapObject) (var3 node) (var4 Addr) (var5 HeapObject) (var6 node) (var7 HeapObject) (var8 Heap) (var9 Addr) (var10 Addr) (var11 Int) (var12 Addr)) (or (not (and (and (Inv_Heap_exp_exp var12 var11 var10) (_Glue2 1 10 var9 var8 var12 var7)) (and (and (and (and (and (and (and (and (and (= (O_node var6) var5) (= (node 10 var4) var3)) (= (O_node var3) var2)) (= (node var11 var10) var6)) (= (read var1 var12) var5)) (valid var1 var12)) (= (getnode var7) var0)) (= (|node::val| var0) 20)) (= (|node::next| var0) var4)) (= (write var8 var12 var2) var1)))) (inv_main587_14 var1 var10 var9))))
(assert (forall ((var0 HeapObject) (var1 node) (var2 Addr) (var3 node) (var4 Addr) (var5 node) (var6 HeapObject) (var7 Heap) (var8 HeapObject) (var9 Addr) (var10 Heap) (var11 Addr)) (or (not (and (_Glue2 1 10 var11 var10 var9 var8) (and (and (and (and (and (and (and (and (and (= (read var7 var9) var6) (= (getnode var6) var5)) (= (|node::next| var5) var4)) (not (valid var7 var9))) (= (getnode var8) var3)) (= (|node::val| var3) 20)) (= (|node::next| var3) var2)) (= (node 10 var2) var1)) (= (O_node var1) var0)) (= (write var10 var9 var0) var7)))) (inv_main587_14 var7 var4 var11))))
(assert (forall ((var0 Addr) (var1 HeapObject) (var2 node) (var3 Addr) (var4 Heap) (var5 Addr) (var6 Int) (var7 Addr)) (or (not (and (and (Inv_Heap_exp_exp var7 var6 var5) (inv_main587_14 var4 var7 var3)) (and (and (and (and (and (and (and (= (O_node var2) var1) (= (node var6 var5) var2)) (= nullAddr var0)) (= (read var4 var7) var1)) (not (= var7 var0))) (not (<= 0 (+ var6 (- 10))))) (<= 0 (+ 20 (* (- 1) var6)))) (valid var4 var7)))) (inv_main588_17 var4 var7 var3))))
(assert (forall ((var0 Int) (var1 node) (var2 HeapObject) (var3 Addr) (var4 Addr) (var5 Addr) (var6 Heap)) (or (not (and (inv_main587_14 var6 var5 var4) (and (and (and (and (and (and (and (= nullAddr var3) (= (read var6 var5) var2)) (= (getnode var2) var1)) (= (|node::val| var1) var0)) (not (= var5 var3))) (not (<= 0 (+ var0 (- 10))))) (<= 0 (+ 20 (* (- 1) var0)))) (not (valid var6 var5))))) (inv_main588_17 var6 var5 var4))))
(assert (forall ((var0 AllocResHeap) (var1 Int) (var2 Addr) (var3 Int) (var4 HeapObject) (var5 node) (var6 Addr) (var7 Addr) (var8 Heap)) (or (not (and (inv_main_2 var8 var7 var6) (and (and (and (and (= (O_node var5) var4) (= (node var3 var2) var5)) (not (<= 0 (+ (+ 10 (* (- 1) var1)) (- 1))))) (not (<= 0 (+ (+ (- 20) var1) (- 1))))) (= (alloc var8 var4) var0)))) (Inv_Heap_exp_exp (newAddr var0) var3 var2))))
(assert (forall ((var0 Int) (var1 AllocResHeap) (var2 Addr) (var3 Heap) (var4 HeapObject) (var5 node) (var6 HeapObject) (var7 node) (var8 Addr) (var9 Heap) (var10 Addr) (var11 Int) (var12 Addr)) (or (not (and (and (Inv_Heap_exp_exp var12 var11 var10) (inv_main_2 var9 var8 var12)) (and (and (and (and (and (and (and (and (= (O_node var7) var6) (= (O_node var5) var4)) (= (AllocResHeap var3 var2) var1)) (= (node var11 var10) var7)) (= (read var3 var12) var6)) (valid var3 var12)) (not (<= 0 (+ (+ 10 (* (- 1) var0)) (- 1))))) (not (<= 0 (+ (+ (- 20) var0) (- 1))))) (= (alloc var9 var4) var1)))) (_Glue7 var12 var8 var0 var2 var3 var6))))
(assert (forall ((var0 Int) (var1 AllocResHeap) (var2 Addr) (var3 HeapObject) (var4 node) (var5 HeapObject) (var6 Heap) (var7 Addr) (var8 Addr) (var9 Heap)) (or (not (and (inv_main_2 var9 var8 var7) (and (and (and (and (and (and (= (read var6 var7) var5) (not (valid var6 var7))) (= (O_node var4) var3)) (= (AllocResHeap var6 var2) var1)) (not (<= 0 (+ (+ 10 (* (- 1) var0)) (- 1))))) (not (<= 0 (+ (+ (- 20) var0) (- 1))))) (= (alloc var9 var3) var1)))) (_Glue7 var7 var8 var0 var2 var6 var5))))
(assert (forall ((var0 Int) (var1 node) (var2 HeapObject) (var3 Heap) (var4 Addr) (var5 Int) (var6 Addr) (var7 Addr)) (or (not (and (_Glue7 var7 var6 var5 var4 var3 var2) (and (and (= (getnode var2) var1) (= (|node::val| var1) var0)) (valid var3 var7)))) (Inv_Heap_exp_exp var7 var0 var4))))
(assert (forall ((var0 node) (var1 Heap) (var2 HeapObject) (var3 node) (var4 Int) (var5 HeapObject) (var6 node) (var7 HeapObject) (var8 Heap) (var9 Int) (var10 Addr) (var11 Addr) (var12 Addr) (var13 Int) (var14 Addr)) (or (not (and (and (Inv_Heap_exp_exp var14 var13 var12) (_Glue7 var11 var10 var9 var14 var8 var7)) (and (and (and (and (and (and (and (and (= (O_node var6) var5) (= (node var4 var14) var3)) (= (O_node var3) var2)) (= (node var13 var12) var6)) (= (read var1 var14) var5)) (valid var1 var14)) (= (getnode var7) var0)) (= (|node::val| var0) var4)) (= (write var8 var11 var2) var1)))) (_Glue9 var1 var10 var9 var14 var5))))
(assert (forall ((var0 HeapObject) (var1 node) (var2 Int) (var3 node) (var4 HeapObject) (var5 Heap) (var6 HeapObject) (var7 Heap) (var8 Addr) (var9 Int) (var10 Addr) (var11 Addr)) (or (not (and (_Glue7 var11 var10 var9 var8 var7 var6) (and (and (and (and (and (and (= (read var5 var8) var4) (not (valid var5 var8))) (= (getnode var6) var3)) (= (|node::val| var3) var2)) (= (node var2 var8) var1)) (= (O_node var1) var0)) (= (write var7 var11 var0) var5)))) (_Glue9 var5 var10 var9 var8 var4))))
(assert (forall ((var0 Addr) (var1 Int) (var2 node) (var3 HeapObject) (var4 Addr) (var5 Int) (var6 Addr) (var7 Heap)) (or (not (and (_Glue9 var7 var6 var5 var4 var3) (and (and (and (= (getnode var3) var2) (= (|node::val| var2) var1)) (= nullAddr var0)) (valid var7 var4)))) (Inv_Heap_exp_exp var4 var1 var0))))
(assert (forall ((var0 node) (var1 Heap) (var2 HeapObject) (var3 node) (var4 Addr) (var5 Int) (var6 HeapObject) (var7 node) (var8 HeapObject) (var9 Int) (var10 Addr) (var11 Heap) (var12 Addr) (var13 Int) (var14 Addr)) (or (not (and (and (Inv_Heap_exp_exp var14 var13 var12) (_Glue9 var11 var10 var9 var14 var8)) (and (and (and (and (and (and (and (and (and (= (O_node var7) var6) (= (node var5 var4) var3)) (= (O_node var3) var2)) (= (node var13 var12) var7)) (= (read var1 var14) var6)) (valid var1 var14)) (= (getnode var8) var0)) (= (|node::val| var0) var5)) (= nullAddr var4)) (= (write var11 var14 var2) var1)))) (_Glue11 var1 var10 var9 var14 var6))))
(assert (forall ((var0 HeapObject) (var1 node) (var2 Addr) (var3 Int) (var4 node) (var5 HeapObject) (var6 Heap) (var7 HeapObject) (var8 Addr) (var9 Int) (var10 Addr) (var11 Heap)) (or (not (and (_Glue9 var11 var10 var9 var8 var7) (and (and (and (and (and (and (and (= (read var6 var8) var5) (not (valid var6 var8))) (= (getnode var7) var4)) (= (|node::val| var4) var3)) (= nullAddr var2)) (= (node var3 var2) var1)) (= (O_node var1) var0)) (= (write var11 var8 var0) var6)))) (_Glue11 var6 var10 var9 var8 var5))))
(assert (forall ((var0 Addr) (var1 node) (var2 HeapObject) (var3 Addr) (var4 Int) (var5 Addr) (var6 Heap)) (or (not (and (_Glue11 var6 var5 var4 var3 var2) (and (and (= (getnode var2) var1) (= (|node::next| var1) var0)) (valid var6 var3)))) (Inv_Heap_exp_exp var3 var4 var0))))
(assert (forall ((var0 Heap) (var1 HeapObject) (var2 node) (var3 Addr) (var4 node) (var5 HeapObject) (var6 Addr) (var7 Int) (var8 Addr) (var9 Heap)) (or (not (and (_Glue11 var9 var8 var7 var6 var5) (and (and (and (and (= (getnode var5) var4) (= (|node::next| var4) var3)) (= (node var7 var3) var2)) (= (O_node var2) var1)) (= (write var9 var6 var1) var0)))) (inv_main_2 var0 var8 var6))))
(assert (forall ((var0 AllocResHeap) (var1 Heap) (var2 Addr) (var3 Int) (var4 HeapObject) (var5 node)) (or (not (and (and (and (= (O_node var5) var4) (= (node var3 var2) var5)) (= (alloc var1 var4) var0)) (= emptyHeap var1))) (Inv_Heap_exp_exp (newAddr var0) var3 var2))))
(assert (forall ((var0 Addr) (var1 Heap) (var2 HeapObject) (var3 node) (var4 AllocResHeap) (var5 Heap) (var6 HeapObject) (var7 node) (var8 Addr) (var9 Int) (var10 Addr)) (or (not (and (Inv_Heap_exp_exp var10 var9 var8) (and (and (and (and (and (and (and (and (= (O_node var7) var6) (= (AllocResHeap var5 var10) var4)) (= (O_node var3) var2)) (= (node var9 var8) var7)) (= (read var5 var10) var6)) (valid var5 var10)) (= (alloc var1 var2) var4)) (= nullAddr var0)) (= emptyHeap var1)))) (_Glue16 var10 var0 var5 var6))))
(assert (forall ((var0 Addr) (var1 Heap) (var2 HeapObject) (var3 node) (var4 AllocResHeap) (var5 HeapObject) (var6 Addr) (var7 Heap)) (or (not (and (and (and (and (and (and (= (read var7 var6) var5) (not (valid var7 var6))) (= (AllocResHeap var7 var6) var4)) (= (O_node var3) var2)) (= (alloc var1 var2) var4)) (= nullAddr var0)) (= emptyHeap var1))) (_Glue16 var6 var0 var7 var5))))
(assert (forall ((var0 Int) (var1 node) (var2 HeapObject) (var3 Heap) (var4 Addr) (var5 Addr)) (or (not (and (_Glue16 var5 var4 var3 var2) (and (and (= (getnode var2) var1) (= (|node::val| var1) var0)) (valid var3 var5)))) (Inv_Heap_exp_exp var5 var0 var4))))
(assert (forall ((var0 node) (var1 Heap) (var2 HeapObject) (var3 node) (var4 Int) (var5 HeapObject) (var6 node) (var7 HeapObject) (var8 Heap) (var9 Addr) (var10 Addr) (var11 Int) (var12 Addr)) (or (not (and (and (Inv_Heap_exp_exp var12 var11 var10) (_Glue16 var12 var9 var8 var7)) (and (and (and (and (and (and (and (and (= (O_node var6) var5) (= (node var4 var9) var3)) (= (O_node var3) var2)) (= (node var11 var10) var6)) (= (read var1 var12) var5)) (valid var1 var12)) (= (getnode var7) var0)) (= (|node::val| var0) var4)) (= (write var8 var12 var2) var1)))) (_Glue18 var1 var12 var5))))
(assert (forall ((var0 HeapObject) (var1 node) (var2 Int) (var3 node) (var4 HeapObject) (var5 Heap) (var6 HeapObject) (var7 Heap) (var8 Addr) (var9 Addr)) (or (not (and (_Glue16 var9 var8 var7 var6) (and (and (and (and (and (and (= (read var5 var9) var4) (not (valid var5 var9))) (= (getnode var6) var3)) (= (|node::val| var3) var2)) (= (node var2 var8) var1)) (= (O_node var1) var0)) (= (write var7 var9 var0) var5)))) (_Glue18 var5 var9 var4))))
(assert (forall ((var0 Int) (var1 Addr) (var2 node) (var3 HeapObject) (var4 Addr) (var5 Heap)) (or (not (and (_Glue18 var5 var4 var3) (and (and (and (= (getnode var3) var2) (= (|node::next| var2) var1)) (valid var5 var4)) (= var0 10)))) (Inv_Heap_exp_exp var4 var0 var1))))
(assert (forall ((var0 Addr) (var1 Heap) (var2 HeapObject) (var3 node) (var4 Addr) (var5 node) (var6 HeapObject) (var7 Addr) (var8 Heap)) (or (not (and (_Glue18 var8 var7 var6) (and (and (and (and (and (= (getnode var6) var5) (= (|node::next| var5) var4)) (= (node 10 var4) var3)) (= (O_node var3) var2)) (= (write var8 var7 var2) var1)) (= var0 var7)))) (inv_main_2 var1 var7 var0))))
(assert (forall ((var0 Addr) (var1 Addr) (var2 Addr) (var3 Heap)) (or (not (and (inv_main587_14 var3 var2 var1) (and (= nullAddr var2) (= var0 var1)))) (inv_main587_14 var3 var0 var1))))
(assert (forall ((var0 Addr) (var1 HeapObject) (var2 node) (var3 Addr) (var4 Heap) (var5 Addr) (var6 Int) (var7 Addr)) (or (not (and (and (Inv_Heap_exp_exp var7 var6 var5) (inv_main587_14 var4 var7 var3)) (and (and (and (and (and (and (= (O_node var2) var1) (= (node var6 var5) var2)) (not (= var7 var0))) (not (<= 0 (+ 20 (* (- 1) var6))))) (= nullAddr var0)) (= (read var4 var7) var1)) (valid var4 var7)))) (inv_main588_17 var4 var7 var3))))
(assert (forall ((var0 node) (var1 HeapObject) (var2 Int) (var3 Addr) (var4 Addr) (var5 Addr) (var6 Heap)) (or (not (and (inv_main587_14 var6 var5 var4) (and (and (and (and (and (and (not (= var5 var3)) (not (<= 0 (+ 20 (* (- 1) var2))))) (= nullAddr var3)) (= (read var6 var5) var1)) (= (getnode var1) var0)) (= (|node::val| var0) var2)) (not (valid var6 var5))))) (inv_main588_17 var6 var5 var4))))
(assert (forall ((var0 Int) (var1 HeapObject) (var2 node) (var3 Addr) (var4 Heap) (var5 Addr) (var6 Int) (var7 Addr)) (or (not (and (and (Inv_Heap_exp_exp var7 var6 var5) (inv_main588_17 var4 var7 var3)) (and (and (and (= (O_node var2) var1) (= (node var6 var5) var2)) (= (read var4 var7) var1)) (valid var4 var7)))) (_Glue4 var0 var3 var4 var7 var1))))
(assert (forall ((var0 Int) (var1 HeapObject) (var2 Addr) (var3 Addr) (var4 Heap)) (or (not (and (inv_main588_17 var4 var3 var2) (and (= (read var4 var3) var1) (not (valid var4 var3))))) (_Glue4 var0 var2 var4 var3 var1))))
(assert (forall ((var0 Addr) (var1 node) (var2 Int) (var3 HeapObject) (var4 Addr) (var5 Heap) (var6 Addr) (var7 Int)) (or (not (and (_Glue4 var7 var6 var5 var4 var3) (and (and (and (and (and (and (<= 0 (+ (* (- 2) var7) var2)) (<= 0 (+ (+ (* 2 var7) (* (- 1) var2)) 1))) (<= 0 (+ var2 (- 20)))) (= (getnode var3) var1)) (= (|node::val| var1) var2)) (= (|node::next| var1) var0)) (valid var5 var4)))) (Inv_Heap_exp_exp var4 var7 var0))))
(assert (forall ((var0 node) (var1 Heap) (var2 HeapObject) (var3 node) (var4 Addr) (var5 HeapObject) (var6 node) (var7 Int) (var8 HeapObject) (var9 Heap) (var10 Addr) (var11 Int) (var12 Addr) (var13 Int) (var14 Addr)) (or (not (and (and (Inv_Heap_exp_exp var14 var13 var12) (_Glue4 var11 var10 var9 var14 var8)) (and (and (and (and (and (and (and (and (and (and (and (and (<= 0 (+ (* (- 2) var11) var7)) (<= 0 (+ (+ (* 2 var11) (* (- 1) var7)) 1))) (<= 0 (+ var7 (- 20)))) (= (O_node var6) var5)) (= (node var11 var4) var3)) (= (O_node var3) var2)) (= (node var13 var12) var6)) (= (read var1 var14) var5)) (valid var1 var14)) (= (getnode var8) var0)) (= (|node::val| var0) var7)) (= (|node::next| var0) var4)) (= (write var9 var14 var2) var1)))) (inv_main587_14 var1 var12 var10))))
(assert (forall ((var0 HeapObject) (var1 node) (var2 Addr) (var3 node) (var4 Addr) (var5 node) (var6 HeapObject) (var7 Heap) (var8 Int) (var9 HeapObject) (var10 Addr) (var11 Heap) (var12 Addr) (var13 Int)) (or (not (and (_Glue4 var13 var12 var11 var10 var9) (and (and (and (and (and (and (and (and (and (and (and (and (<= 0 (+ (* (- 2) var13) var8)) (<= 0 (+ (+ (* 2 var13) (* (- 1) var8)) 1))) (<= 0 (+ var8 (- 20)))) (= (read var7 var10) var6)) (= (getnode var6) var5)) (= (|node::next| var5) var4)) (not (valid var7 var10))) (= (getnode var9) var3)) (= (|node::val| var3) var8)) (= (|node::next| var3) var2)) (= (node var13 var2) var1)) (= (O_node var1) var0)) (= (write var11 var10 var0) var7)))) (inv_main587_14 var7 var4 var12))))
(assert (forall ((var0 HeapObject) (var1 node) (var2 Addr) (var3 Heap) (var4 Addr) (var5 Int) (var6 Addr)) (or (not (and (and (Inv_Heap_exp_exp var6 var5 var4) (inv_main588_17 var3 var6 var2)) (and (and (and (= (O_node var1) var0) (= (node var5 var4) var1)) (= (read var3 var6) var0)) (valid var3 var6)))) (_Glue0 var2 var3 var6 var0))))
(assert (forall ((var0 HeapObject) (var1 Addr) (var2 Addr) (var3 Heap)) (or (not (and (inv_main588_17 var3 var2 var1) (and (= (read var3 var2) var0) (not (valid var3 var2))))) (_Glue0 var1 var3 var2 var0))))
(assert (forall ((var0 Int) (var1 Addr) (var2 node) (var3 HeapObject) (var4 Addr) (var5 Heap) (var6 Addr)) (or (not (and (_Glue0 var6 var5 var4 var3) (and (and (and (and (= (getnode var3) var2) (= (|node::next| var2) var1)) (= (|node::val| var2) (+ var0 (- 1)))) (<= 0 (+ (+ 20 (* (- 1) (+ var0 (- 1)))) (- 1)))) (valid var5 var4)))) (Inv_Heap_exp_exp var4 var0 var1))))
(assert (forall ((var0 node) (var1 Heap) (var2 HeapObject) (var3 node) (var4 Addr) (var5 Int) (var6 HeapObject) (var7 node) (var8 HeapObject) (var9 Heap) (var10 Addr) (var11 Addr) (var12 Int) (var13 Addr)) (or (not (and (and (Inv_Heap_exp_exp var13 var12 var11) (_Glue0 var10 var9 var13 var8)) (and (and (and (and (and (and (and (and (and (and (= (O_node var7) var6) (= (node (+ var5 1) var4) var3)) (= (O_node var3) var2)) (= (node var12 var11) var7)) (= (read var1 var13) var6)) (valid var1 var13)) (= (getnode var8) var0)) (= (|node::next| var0) var4)) (= (|node::val| var0) var5)) (<= 0 (+ (+ 20 (* (- 1) var5)) (- 1)))) (= (write var9 var13 var2) var1)))) (inv_main587_14 var1 var11 var10))))
(assert (forall ((var0 HeapObject) (var1 node) (var2 Int) (var3 Addr) (var4 node) (var5 Addr) (var6 node) (var7 HeapObject) (var8 Heap) (var9 HeapObject) (var10 Addr) (var11 Heap) (var12 Addr)) (or (not (and (_Glue0 var12 var11 var10 var9) (and (and (and (and (and (and (and (and (and (and (= (read var8 var10) var7) (= (getnode var7) var6)) (= (|node::next| var6) var5)) (not (valid var8 var10))) (= (getnode var9) var4)) (= (|node::next| var4) var3)) (= (|node::val| var4) var2)) (<= 0 (+ (+ 20 (* (- 1) var2)) (- 1)))) (= (node (+ var2 1) var3) var1)) (= (O_node var1) var0)) (= (write var11 var10 var0) var8)))) (inv_main587_14 var8 var5 var12))))
(assert (forall ((var0 Addr) (var1 Addr) (var2 Heap)) (not (inv_main588_17 var2 var1 var0))))
(assert (forall ((var0 Addr) (var1 Addr) (var2 Heap)) (or (not (inv_main_2 var2 var1 var0)) (inv_main_2 var2 var1 var0))))
(assert (forall ((var0 Addr) (var1 Addr) (var2 Heap)) (or (not (inv_main_2 var2 var1 var0)) (inv_main_2 var2 var1 var0))))
(assert (forall ((var0 Int) (var1 Addr) (var2 HeapObject) (var3 node) (var4 Addr) (var5 Heap) (var6 Addr) (var7 Int) (var8 Addr)) (or (not (and (and (Inv_Heap_exp_exp var8 var7 var6) (inv_main587_14 var5 var8 var4)) (and (and (and (and (and (and (= (O_node var3) var2) (= (node var7 var6) var3)) (= nullAddr var1)) (not (= var0 0))) (not (= var8 var1))) (= (read var5 var8) var2)) (valid var5 var8)))) (_Glue12 var0 var4 var5 var8 var2))))
(assert (forall ((var0 HeapObject) (var1 Int) (var2 Addr) (var3 Addr) (var4 Addr) (var5 Heap)) (or (not (and (inv_main587_14 var5 var4 var3) (and (and (and (and (= nullAddr var2) (not (= var1 0))) (not (= var4 var2))) (= (read var5 var4) var0)) (not (valid var5 var4))))) (_Glue12 var1 var3 var5 var4 var0))))
(assert (forall ((var0 Addr) (var1 node) (var2 Int) (var3 HeapObject) (var4 Addr) (var5 Heap) (var6 Addr)) (or (not (and (_Glue12 1 var6 var5 var4 var3) (and (and (and (and (and (<= 0 (+ (* (- 1) var2) 20)) (<= 0 (+ var2 (- 11)))) (= (getnode var3) var1)) (= (|node::next| var1) var0)) (= (|node::val| var1) (+ var2 (- 1)))) (valid var5 var4)))) (Inv_Heap_exp_exp var4 var2 var0))))
(assert (forall ((var0 Addr) (var1 node) (var2 Int) (var3 HeapObject) (var4 Addr) (var5 Heap) (var6 Addr)) (or (not (and (_Glue12 0 var6 var5 var4 var3) (and (and (and (and (<= 0 (+ (* (- 1) var2) 10)) (= (getnode var3) var1)) (= (|node::next| var1) var0)) (= (|node::val| var1) (+ var2 (- 1)))) (valid var5 var4)))) (Inv_Heap_exp_exp var4 var2 var0))))
(assert (forall ((var0 node) (var1 Heap) (var2 HeapObject) (var3 node) (var4 Addr) (var5 HeapObject) (var6 node) (var7 Int) (var8 HeapObject) (var9 Heap) (var10 Addr) (var11 Addr) (var12 Int) (var13 Addr)) (or (not (and (and (Inv_Heap_exp_exp var13 var12 var11) (_Glue12 1 var10 var9 var13 var8)) (and (and (and (and (and (and (and (and (and (and (and (<= 0 (+ (* (- 1) var7) 19)) (<= 0 (+ var7 (- 10)))) (= (O_node var6) var5)) (= (node (+ var7 1) var4) var3)) (= (O_node var3) var2)) (= (node var12 var11) var6)) (= (read var1 var13) var5)) (valid var1 var13)) (= (getnode var8) var0)) (= (|node::next| var0) var4)) (= (|node::val| var0) var7)) (= (write var9 var13 var2) var1)))) (inv_main587_14 var1 var11 var10))))
(assert (forall ((var0 node) (var1 Heap) (var2 HeapObject) (var3 node) (var4 Addr) (var5 HeapObject) (var6 node) (var7 Int) (var8 HeapObject) (var9 Heap) (var10 Addr) (var11 Addr) (var12 Int) (var13 Addr)) (or (not (and (and (Inv_Heap_exp_exp var13 var12 var11) (_Glue12 0 var10 var9 var13 var8)) (and (and (and (and (and (and (and (and (and (and (<= 0 (+ (* (- 1) var7) 9)) (= (O_node var6) var5)) (= (node (+ var7 1) var4) var3)) (= (O_node var3) var2)) (= (node var12 var11) var6)) (= (read var1 var13) var5)) (valid var1 var13)) (= (getnode var8) var0)) (= (|node::next| var0) var4)) (= (|node::val| var0) var7)) (= (write var9 var13 var2) var1)))) (inv_main587_14 var1 var11 var10))))
(assert (forall ((var0 HeapObject) (var1 node) (var2 Addr) (var3 node) (var4 Addr) (var5 node) (var6 HeapObject) (var7 Heap) (var8 Int) (var9 HeapObject) (var10 Addr) (var11 Heap) (var12 Addr)) (or (not (and (_Glue12 1 var12 var11 var10 var9) (and (and (and (and (and (and (and (and (and (and (and (<= 0 (+ (* (- 1) var8) 19)) (<= 0 (+ var8 (- 10)))) (= (read var7 var10) var6)) (= (getnode var6) var5)) (= (|node::next| var5) var4)) (not (valid var7 var10))) (= (getnode var9) var3)) (= (|node::next| var3) var2)) (= (|node::val| var3) var8)) (= (node (+ var8 1) var2) var1)) (= (O_node var1) var0)) (= (write var11 var10 var0) var7)))) (inv_main587_14 var7 var4 var12))))
(assert (forall ((var0 HeapObject) (var1 node) (var2 Addr) (var3 node) (var4 Addr) (var5 node) (var6 HeapObject) (var7 Heap) (var8 Int) (var9 HeapObject) (var10 Addr) (var11 Heap) (var12 Addr)) (or (not (and (_Glue12 0 var12 var11 var10 var9) (and (and (and (and (and (and (and (and (and (and (<= 0 (+ (* (- 1) var8) 9)) (= (read var7 var10) var6)) (= (getnode var6) var5)) (= (|node::next| var5) var4)) (not (valid var7 var10))) (= (getnode var9) var3)) (= (|node::next| var3) var2)) (= (|node::val| var3) var8)) (= (node (+ var8 1) var2) var1)) (= (O_node var1) var0)) (= (write var11 var10 var0) var7)))) (inv_main587_14 var7 var4 var12))))
(assert (forall ((var0 Addr) (var1 Addr) (var2 Addr) (var3 Heap)) (or (not (and (inv_main_2 var3 var2 var1) (= var0 var2))) (inv_main587_14 var3 var0 var2))))
(check-sat)
